p edge 60 180
e 1 2
e 1 46
e 1 60
e 2 37
e 2 45
e 2 46
e 3 6
e 3 28
e 3 57
e 4 6
e 4 24
e 4 47
e 5 10
e 5 14
e 5 21
e 6 14
e 6 18
e 6 25
e 7 16
e 7 43
e 7 51
e 8 15
e 8 46
e 8 52
e 9 15
e 9 18
e 9 28
e 10 4
e 10 41
e 10 45
e 11 8
e 11 45
e 11 51
e 12 15
e 12 37
e 12 49
e 13 9
e 13 39
e 13 42
e 14 4
e 14 12
e 14 25
e 15 1
e 15 12
e 15 20
e 16 1
e 16 13
e 16 55
e 17 31
e 17 49
e 17 57
e 18 20
e 18 47
e 18 53
e 19 7
e 19 47
e 19 56
e 20 55
e 20 59
e 20 60
e 21 11
e 21 16
e 21 25
e 22 15
e 22 36
e 22 59
e 23 11
e 23 22
e 23 48
e 24 3
e 24 13
e 24 18
e 25 13
e 25 27
e 25 58
e 26 53
e 26 54
e 26 57
e 27 2
e 27 9
e 27 21
e 28 2
e 28 27
e 28 30
e 29 30
e 29 32
e 29 46
e 30 5
e 30 38
e 30 60
e 31 10
e 31 10
e 31 41
e 32 2
e 32 38
e 32 52
e 33 7
e 33 12
e 33 58
e 34 3
e 34 22
e 34 36
e 35 4
e 35 8
e 35 10
e 36 17
e 36 28
e 36 50
e 37 18
e 37 34
e 37 57
e 38 6
e 38 7
e 38 58
e 39 24
e 39 47
e 39 49
e 40 5
e 40 45
e 40 60
e 41 29
e 41 39
e 41 52
e 42 16
e 42 30
e 42 33
e 43 4
e 43 26
e 43 60
e 44 31
e 44 33
e 44 49
e 45 29
e 45 36
e 45 46
e 46 10
e 46 19
e 46 41
e 47 23
e 47 24
e 47 37
e 48 20
e 48 26
e 48 39
e 49 27
e 49 43
e 49 52
e 50 2
e 50 35
e 50 36
e 51 29
e 51 48
e 51 60
e 52 9
e 52 34
e 52 45
e 53 2
e 53 22
e 53 51
e 54 14
e 54 41
e 54 44
e 55 5
e 55 15
e 55 29
e 56 25
e 56 28
e 56 35
e 57 4
e 57 17
e 57 48
e 58 48
e 58 52
e 58 53
e 59 8
e 59 26
e 59 40
e 60 17
e 60 40
e 60 53
